p cnf 262 649
6 11 16 21 26 0
-6 -11 0
-6 -16 0
-6 -21 0
-6 -26 0
-11 -16 0
-11 -21 0
-11 -26 0
-16 -21 0
-16 -26 0
-21 -26 0
61 31 46 0
-61 -31 0
-61 -46 0
-31 -46 0
62 33 48 0
-62 -33 0
-62 -48 0
-33 -48 0
63 35 50 0
-63 -35 0
-63 -50 0
-35 -50 0
64 37 52 0
-64 -37 0
-64 -52 0
-37 -52 0
65 39 54 0
-65 -39 0
-65 -54 0
-39 -54 0
-6 -251 -86 0
-6 -251 97 0
-11 -251 -97 0
-11 -251 108 0
-16 -251 -108 0
-16 -251 119 0
-21 -251 -119 0
-21 -251 130 0
-26 -251 -130 0
-26 -251 86 0
-86 -252 -91 0
-86 -252 102 0
-97 -252 -102 0
-97 -252 113 0
-108 -252 -113 0
-108 -252 124 0
-119 -252 -124 0
-119 -252 135 0
-130 -252 -135 0
-130 -252 91 0
-91 -253 -96 0
-91 -253 107 0
-102 -253 -107 0
-102 -253 118 0
-113 -253 -118 0
-113 -253 129 0
-124 -253 -129 0
-124 -253 140 0
-135 -253 -140 0
-135 -253 96 0
-6 -254 -86 0
-6 -254 130 0
-11 -254 -97 0
-11 -254 86 0
-16 -254 -108 0
-16 -254 97 0
-21 -254 -119 0
-21 -254 108 0
-26 -254 -130 0
-26 -254 119 0
-86 -255 -91 0
-86 -255 135 0
-97 -255 -102 0
-97 -255 91 0
-108 -255 -113 0
-108 -255 102 0
-119 -255 -124 0
-119 -255 113 0
-130 -255 -135 0
-130 -255 124 0
-91 -256 -96 0
-91 -256 140 0
-102 -256 -107 0
-102 -256 96 0
-113 -256 -118 0
-113 -256 107 0
-124 -256 -129 0
-124 -256 118 0
-135 -256 -140 0
-135 -256 129 0
-6 -31 -257 181 0
-11 -33 -257 186 0
-16 -35 -257 191 0
-26 -39 -257 201 0
-21 -37 -257 196 0
-86 -141 -258 183 0
-97 -146 -258 188 0
-108 -151 -258 193 0
-130 -161 -258 203 0
-119 -156 -258 198 0
-91 -143 -259 185 0
-102 -148 -259 190 0
-113 -153 -259 195 0
-135 -163 -259 205 0
-124 -158 -259 200 0
-6 -260 141 0
-11 -260 146 0
-16 -260 151 0
-21 -260 156 0
-26 -260 161 0
-86 -261 143 0
-97 -261 148 0
-108 -261 153 0
-119 -261 158 0
-130 -261 163 0
-91 -262 145 0
-102 -262 150 0
-113 -262 155 0
-124 -262 160 0
-135 -262 165 0
-1 71 0
1 -71 0
-71 72 0
71 -72 0
-72 73 0
72 -73 0
-2 74 0
2 -74 0
-74 75 0
74 -75 0
-75 76 0
75 -76 0
-3 77 0
3 -77 0
-77 78 0
77 -78 0
-78 79 0
78 -79 0
-4 80 0
4 -80 0
-80 81 0
80 -81 0
-81 82 0
81 -82 0
-5 83 0
5 -83 0
-83 84 0
83 -84 0
-84 85 0
84 -85 0
-6 -251 7 0
-7 6 0
-7 251 0
-6 -254 8 0
-8 6 0
-8 254 0
7 8 -6 86 0
-26 -251 9 0
-9 26 0
-9 251 0
-11 -254 10 0
-10 11 0
-10 254 0
9 10 6 -86 0
-86 -252 87 0
-87 86 0
-87 252 0
-86 -255 88 0
-88 86 0
-88 255 0
87 88 -86 91 0
-130 -252 89 0
-89 130 0
-89 252 0
-97 -255 90 0
-90 97 0
-90 255 0
89 90 86 -91 0
-91 -253 92 0
-92 91 0
-92 253 0
-91 -256 93 0
-93 91 0
-93 256 0
92 93 -91 96 0
-135 -253 94 0
-94 135 0
-94 253 0
-102 -256 95 0
-95 102 0
-95 256 0
94 95 91 -96 0
-11 -251 12 0
-12 11 0
-12 251 0
-11 -254 13 0
-13 11 0
-13 254 0
12 13 -11 97 0
-6 -251 14 0
-14 6 0
-14 251 0
-16 -254 15 0
-15 16 0
-15 254 0
14 15 11 -97 0
-97 -252 98 0
-98 97 0
-98 252 0
-97 -255 99 0
-99 97 0
-99 255 0
98 99 -97 102 0
-86 -252 100 0
-100 86 0
-100 252 0
-108 -255 101 0
-101 108 0
-101 255 0
100 101 97 -102 0
-102 -253 103 0
-103 102 0
-103 253 0
-102 -256 104 0
-104 102 0
-104 256 0
103 104 -102 107 0
-91 -253 105 0
-105 91 0
-105 253 0
-113 -256 106 0
-106 113 0
-106 256 0
105 106 102 -107 0
-16 -251 17 0
-17 16 0
-17 251 0
-16 -254 18 0
-18 16 0
-18 254 0
17 18 -16 108 0
-11 -251 19 0
-19 11 0
-19 251 0
-21 -254 20 0
-20 21 0
-20 254 0
19 20 16 -108 0
-108 -252 109 0
-109 108 0
-109 252 0
-108 -255 110 0
-110 108 0
-110 255 0
109 110 -108 113 0
-97 -252 111 0
-111 97 0
-111 252 0
-119 -255 112 0
-112 119 0
-112 255 0
111 112 108 -113 0
-113 -253 114 0
-114 113 0
-114 253 0
-113 -256 115 0
-115 113 0
-115 256 0
114 115 -113 118 0
-102 -253 116 0
-116 102 0
-116 253 0
-124 -256 117 0
-117 124 0
-117 256 0
116 117 113 -118 0
-21 -251 22 0
-22 21 0
-22 251 0
-21 -254 23 0
-23 21 0
-23 254 0
22 23 -21 119 0
-16 -251 24 0
-24 16 0
-24 251 0
-26 -254 25 0
-25 26 0
-25 254 0
24 25 21 -119 0
-119 -252 120 0
-120 119 0
-120 252 0
-119 -255 121 0
-121 119 0
-121 255 0
120 121 -119 124 0
-108 -252 122 0
-122 108 0
-122 252 0
-130 -255 123 0
-123 130 0
-123 255 0
122 123 119 -124 0
-124 -253 125 0
-125 124 0
-125 253 0
-124 -256 126 0
-126 124 0
-126 256 0
125 126 -124 129 0
-113 -253 127 0
-127 113 0
-127 253 0
-135 -256 128 0
-128 135 0
-128 256 0
127 128 124 -129 0
-26 -251 27 0
-27 26 0
-27 251 0
-26 -254 28 0
-28 26 0
-28 254 0
27 28 -26 130 0
-21 -251 29 0
-29 21 0
-29 251 0
-6 -254 30 0
-30 6 0
-30 254 0
29 30 26 -130 0
-130 -252 131 0
-131 130 0
-131 252 0
-130 -255 132 0
-132 130 0
-132 255 0
131 132 -130 135 0
-119 -252 133 0
-133 119 0
-133 252 0
-86 -255 134 0
-134 86 0
-134 255 0
133 134 130 -135 0
-135 -253 136 0
-136 135 0
-136 253 0
-135 -256 137 0
-137 135 0
-137 256 0
136 137 -135 140 0
-124 -253 138 0
-138 124 0
-138 253 0
-91 -256 139 0
-139 91 0
-139 256 0
138 139 135 -140 0
-31 141 0
-6 -260 32 0
-32 6 0
-32 260 0
32 31 -141 0
-141 143 0
-86 -261 142 0
-142 86 0
-142 261 0
142 141 -143 0
-143 145 0
-91 -262 144 0
-144 91 0
-144 262 0
144 143 -145 0
-33 146 0
-11 -260 34 0
-34 11 0
-34 260 0
34 33 -146 0
-146 148 0
-97 -261 147 0
-147 97 0
-147 261 0
147 146 -148 0
-148 150 0
-102 -262 149 0
-149 102 0
-149 262 0
149 148 -150 0
-35 151 0
-16 -260 36 0
-36 16 0
-36 260 0
36 35 -151 0
-151 153 0
-108 -261 152 0
-152 108 0
-152 261 0
152 151 -153 0
-153 155 0
-113 -262 154 0
-154 113 0
-154 262 0
154 153 -155 0
-37 156 0
-21 -260 38 0
-38 21 0
-38 260 0
38 37 -156 0
-156 158 0
-119 -261 157 0
-157 119 0
-157 261 0
157 156 -158 0
-158 160 0
-124 -262 159 0
-159 124 0
-159 262 0
159 158 -160 0
-39 161 0
-26 -260 40 0
-40 26 0
-40 260 0
40 39 -161 0
-161 163 0
-130 -261 162 0
-162 130 0
-162 261 0
162 161 -163 0
-163 165 0
-135 -262 164 0
-164 135 0
-164 262 0
164 163 -165 0
-41 166 0
41 -166 0
-166 167 0
166 -167 0
-167 168 0
167 -168 0
-42 169 0
42 -169 0
-169 170 0
169 -170 0
-170 171 0
170 -171 0
-43 172 0
43 -172 0
-172 173 0
172 -173 0
-173 174 0
173 -174 0
-44 175 0
44 -175 0
-175 176 0
175 -176 0
-176 177 0
176 -177 0
-45 178 0
45 -178 0
-178 179 0
178 -179 0
-179 180 0
179 -180 0
-46 181 0
-6 -31 -257 47 0
-47 6 0
-47 31 0
-47 257 0
47 46 -181 0
-181 183 0
-86 -141 -258 182 0
-182 86 0
-182 141 0
-182 258 0
182 181 -183 0
-183 185 0
-91 -143 -259 184 0
-184 91 0
-184 143 0
-184 259 0
184 183 -185 0
-48 186 0
-11 -33 -257 49 0
-49 11 0
-49 33 0
-49 257 0
49 48 -186 0
-186 188 0
-97 -146 -258 187 0
-187 97 0
-187 146 0
-187 258 0
187 186 -188 0
-188 190 0
-102 -148 -259 189 0
-189 102 0
-189 148 0
-189 259 0
189 188 -190 0
-50 191 0
-16 -35 -257 51 0
-51 16 0
-51 35 0
-51 257 0
51 50 -191 0
-191 193 0
-108 -151 -258 192 0
-192 108 0
-192 151 0
-192 258 0
192 191 -193 0
-193 195 0
-113 -153 -259 194 0
-194 113 0
-194 153 0
-194 259 0
194 193 -195 0
-52 196 0
-21 -37 -257 53 0
-53 21 0
-53 37 0
-53 257 0
53 52 -196 0
-196 198 0
-119 -156 -258 197 0
-197 119 0
-197 156 0
-197 258 0
197 196 -198 0
-198 200 0
-124 -158 -259 199 0
-199 124 0
-199 158 0
-199 259 0
199 198 -200 0
-54 201 0
-26 -39 -257 55 0
-55 26 0
-55 39 0
-55 257 0
55 54 -201 0
-201 203 0
-130 -161 -258 202 0
-202 130 0
-202 161 0
-202 258 0
202 201 -203 0
-203 205 0
-135 -163 -259 204 0
-204 135 0
-204 163 0
-204 259 0
204 203 -205 0
-56 206 0
56 -206 0
-206 207 0
206 -207 0
-207 208 0
207 -208 0
-57 209 0
57 -209 0
-209 210 0
209 -210 0
-210 211 0
210 -211 0
-58 212 0
58 -212 0
-212 213 0
212 -213 0
-213 214 0
213 -214 0
-59 215 0
59 -215 0
-215 216 0
215 -216 0
-216 217 0
216 -217 0
-60 218 0
60 -218 0
-218 219 0
218 -219 0
-219 220 0
219 -220 0
-61 221 0
61 -221 0
-221 222 0
221 -222 0
-222 223 0
222 -223 0
-62 224 0
62 -224 0
-224 225 0
224 -225 0
-225 226 0
225 -226 0
-63 227 0
63 -227 0
-227 228 0
227 -228 0
-228 229 0
228 -229 0
-64 230 0
64 -230 0
-230 231 0
230 -231 0
-231 232 0
231 -232 0
-65 233 0
65 -233 0
-233 234 0
233 -234 0
-234 235 0
234 -235 0
-66 236 0
66 -236 0
-236 237 0
236 -237 0
-237 238 0
237 -238 0
-67 239 0
67 -239 0
-239 240 0
239 -240 0
-240 241 0
240 -241 0
-68 242 0
68 -242 0
-242 243 0
242 -243 0
-243 244 0
243 -244 0
-69 245 0
69 -245 0
-245 246 0
245 -246 0
-246 247 0
246 -247 0
-70 248 0
70 -248 0
-248 249 0
248 -249 0
-249 250 0
249 -250 0
-251 -254 0
-252 -255 0
-253 -256 0
